SECTION GRAPH
NODES 5
EDGES 10
E 1 2 4
E 1 3 2
E 2 3 1
E 1 4 3
E 4 3 1
E 2 5 2
E 3 5 4
E 4 5 2
E 4 2 5
E 1 5 2
END

SECTION Terminals
Terminals 5
T 1
T 4
T 5
T 2
T 3
END

SECTION Tree Decomposition
s td 1 4 5
b 1 1 2 3 4 5
END
EOF 

// K5 
// Answer: 6